% Auto-generated by scripts/generate_dzn.py
% problem_type   = regex
% instance       = regex_30
% source_json    = instances_json/1_medium_blowup/regex_30.json
% blowup         = 8.444444444444445
% representation = NFA

mode = 1;

var_count = 21;
n_constraints = 2;
Q = 11;
S = 3;
q0 = [1, 1];
F = [{11}, {7}];
weights = [5, 10, 9, 6, 6, 4, 7, 8, 4, 4, 7, 5, 4, 1, 4, 4, 8, 9, 8, 3, 2];
d_dfa = array3d(1..2, 1..11, 1..3, [
  % k = 1
    0, 0, 0,
    0, 0, 0,
    0, 0, 0,
    0, 0, 0,
    0, 0, 0,
    0, 0, 0,
    0, 0, 0,
    0, 0, 0,
    0, 0, 0,
    0, 0, 0,
    0, 0, 0,

  % k = 2
    0, 0, 0,
    0, 0, 0,
    0, 0, 0,
    0, 0, 0,
    0, 0, 0,
    0, 0, 0,
    0, 0, 0,
    0, 0, 0,
    0, 0, 0,
    0, 0, 0,
    0, 0, 0
]);
d_nfa = array3d(1..2, 1..11, 1..3, [
  % k = 1
    {1, 2}, {1}, {1},
    {}, {3}, {},
    {4}, {4}, {4},
    {5}, {5}, {5},
    {6}, {6}, {6},
    {7}, {7}, {7},
    {8}, {8}, {8},
    {9}, {9}, {9},
    {10}, {10}, {10},
    {11}, {11}, {11},
    {}, {}, {},

  % k = 2
    {1}, {1}, {2},
    {2}, {2}, {3},
    {3}, {3}, {4},
    {4}, {4}, {5},
    {5}, {5}, {6},
    {6}, {6}, {7},
    {7}, {7}, {},
    {}, {}, {},
    {}, {}, {},
    {}, {}, {},
    {}, {}, {}
]);
